cliques=[{18,0,12,29,23,6},{3,0,2,5,4,1},{3,0,2,5,4,1},{20,3,9,15,32,26},{3,0,2,5,4,1},{3,0,2,5,4,1},{7,9,10,8,11,6},{7,9,10,8,11,6},{7,9,10,8,11,6},{20,3,9,15,32,26},{7,9,10,8,11,6},{7,9,10,8,11,6},{18,0,12,29,23,6},{13,15,14,12,16,17},{13,15,14,12,16,17},{20,3,9,15,32,26},{13,15,14,12,16,17},{13,15,14,12,16,17},{18,20,22,19,21},{18,20,22,19,21},{20,3,9,15,32,26},{18,20,22,19,21},{18,20,22,19,21},{18,0,12,29,23,6},{7,13,19,30,24,1},{27,25,24,23,26,28},{20,3,9,15,32,26},{27,10,16,4,21,33},{27,25,24,23,26,28},{18,0,12,29,23,6},{7,13,19,30,24,1},{14,2,25,8,31},{20,3,9,15,32,26},{27,10,16,4,21,33}];
nr_cliques=34;
